n_res = 4;
rcap = [15, 23, 70, 68];
rtype = [1, 1, 2, 2];
n_tasks = 10;
modes = [ {1, 2, 3}, {4, 5, 6}, {7, 8, 9}, {10, 11, 12}, {13, 14, 15}, {16, 17, 18}, {19, 20, 21}, {22, 23, 24}, {25, 26, 27}, {28, 29, 30} ];
succ = [ {5, 9}, {4, 5, 6}, {5, 10}, {8, 10}, {7}, {8}, {8}, {}, {}, {} ];
n_opt = 30;
dur = [5, 5, 10, 4, 5, 9, 5, 5, 5, 2, 5, 7, 5, 8, 9, 1, 5, 8, 3, 10, 10, 1, 2, 2, 2, 6, 10, 1, 1, 4];
rreq = [|  5,  0,  5,  0,  0,  0,  0,  8,  7,  2,  0,  0,  0,  0,  0,  6,  4,  0,  0,  0,  9,  0,  4,  0, 10,  0,  0,  8,  9,  0
        |  0,  2,  0,  6,  6,  4,  6,  0,  0,  0,  9,  8,  8,  8,  6,  0,  0,  9,  5,  2,  0,  7,  0,  5,  0,  5,  5,  0,  0,  4
        |  9,  7,  5,  4,  2,  1,  2,  3,  8,  8,  8,  3,  6,  6,  5,  9,  8,  8,  8,  4,  7,  7,  4,  6,  7,  4,  4,  4,  4,  4
        |  9,  9,  9,  9,  7,  7,  5,  5,  6,  5,  5,  4,  9,  7,  7,  7,  4,  2,  4,  4,  4,  5,  2,  2,  4,  4,  3, 10,  7,  5 |];
